NAME
* Example from Julio's thesis section 4.2
OBJSENSE
    MIN
ROWS
 N  obj
 E  c1
COLUMNS
    x1        obj       3
    x1        c1        9
    x2        obj       2
    x2        c1        1
    x3        obj       2
    x3        c1        1
    MARK0001  'MARKER'                 'INTORG'
    x4        obj       1
    x4        c1        1
    MARK0001  'MARKER'                 'INTEND'

RHS
    rhs       c1        10
RANGES
BOUNDS
 FR bound     x1
 FR bound     x2
 FR bound     x3
 FR bound     x4
CSECTION      k1        0              QUAD
    x1
    x2
    x3
    x4
ENDATA
